(set-info :smt-lib-version 2.6)
(set-logic QF_SLIA)
(set-info :source |
Generated by: Joel Day, Thorsten Ehlers, Mitja Kulczynski, Federico Mora, Florin Manea, Dirk Nowotka, Danny Poulsen, Zhengyang Lu
Application: Test WOORPJE
Target solver: WOORPJE
Publications: Day, J. D., Ehlers, T., Kulczynski, M., Manea, F., Nowotka, D., & Poulsen, D. B. (2019). On solving word equations using SAT. In RP 2019
Description: Enriches a system of 30 word equations by suitable linear constraints
|)
(set-info :license "https://creativecommons.org/licenses/by/4.0/")
(set-info :category "random")
(set-info :status unknown)

(declare-fun B () String)
(declare-fun A () String)
(declare-fun C () String)
(assert (= (str.++  "ccbe" B "beafbbf" A "beadcccfdfe")  (str.++  "ccbefacbeafbbf" C "fdfe") ))
(assert (= (str.++  "cccffefabcabbedcefabadbaacfbfbfacbccebfd" "")  (str.++  "cccffefabcabbedcefabadbaacfbfb" B "bccebfd") ))
(assert (= (str.++  "ccfdaecaffacacdcdcdbfbaebedbffacbacfdfbf" "")  (str.++  "ccfdaecaf" B "acdcdcdbfbaebedbffacbacfdfbf") ))
(assert (>=(* (str.len A) 1) 10))
(assert (>=(* (str.len C) 16) 144))
(assert (>=(* (str.len B) 13) 39))
(check-sat)

(exit)
